561,406
709,583
914,639
602,909
756,880
709,583
533,383
385,360
755,634
927,745
742,791
1069,688
923,582
237,476
533,383
593,285
600,566
611,850
436,887
399,794
390,617
1028,229
705,389
561,406
593,392
718,292
600,246
425,323
751,-38
512,237
225,258
